c colouring generated by benchmark framework
p edge 450 5734
v 1 4
v 2 5
v 3 2
v 4 7
v 5 8
v 6 6
v 7 8
v 8 0
v 9 9
v 10 6
v 11 3
v 12 5
v 13 5
v 14 8
v 15 5
v 16 10
v 17 7
v 18 7
v 19 2
v 20 10
v 21 10
v 22 5
v 23 5
v 24 3
v 25 9
v 26 9
v 27 9
v 28 7
v 29 10
v 30 9
v 31 1
v 32 9
v 33 10
v 34 0
v 35 2
v 36 6
v 37 9
v 38 8
v 39 1
v 40 0
v 41 7
v 42 0
v 43 7
v 44 3
v 45 10
v 46 6
v 47 8
v 48 5
v 49 7
v 50 0
v 51 7
v 52 5
v 53 3
v 54 3
v 55 8
v 56 10
v 57 4
v 58 5
v 59 0
v 60 3
v 61 10
v 62 2
v 63 3
v 64 1
v 65 7
v 66 0
v 67 7
v 68 3
v 69 5
v 70 1
v 71 7
v 72 4
v 73 7
v 74 9
v 75 2
v 76 2
v 77 5
v 78 10
v 79 2
v 80 0
v 81 2
v 82 3
v 83 0
v 84 7
v 85 8
v 86 5
v 87 4
v 88 1
v 89 2
v 90 6
v 91 0
v 92 10
v 93 5
v 94 8
v 95 6
v 96 8
v 97 10
v 98 9
v 99 4
v 100 5
v 101 7
v 102 10
v 103 3
v 104 9
v 105 1
v 106 10
v 107 9
v 108 3
v 109 3
v 110 1
v 111 1
v 112 5
v 113 2
v 114 1
v 115 1
v 116 1
v 117 4
v 118 8
v 119 0
v 120 0
v 121 1
v 122 4
v 123 10
v 124 5
v 125 8
v 126 9
v 127 4
v 128 1
v 129 5
v 130 6
v 131 10
v 132 8
v 133 9
v 134 2
v 135 9
v 136 8
v 137 2
v 138 7
v 139 10
v 140 9
v 141 5
v 142 2
v 143 1
v 144 8
v 145 5
v 146 1
v 147 8
v 148 3
v 149 0
v 150 3
v 151 5
v 152 4
v 153 7
v 154 3
v 155 4
v 156 4
v 157 1
v 158 10
v 159 3
v 160 3
v 161 6
v 162 4
v 163 2
v 164 3
v 165 0
v 166 4
v 167 1
v 168 0
v 169 7
v 170 4
v 171 4
v 172 6
v 173 7
v 174 6
v 175 8
v 176 1
v 177 6
v 178 3
v 179 2
v 180 9
v 181 4
v 182 9
v 183 0
v 184 1
v 185 8
v 186 4
v 187 8
v 188 6
v 189 9
v 190 2
v 191 8
v 192 10
v 193 2
v 194 8
v 195 0
v 196 4
v 197 4
v 198 10
v 199 3
v 200 6
v 201 1
v 202 2
v 203 9
v 204 8
v 205 0
v 206 1
v 207 4
v 208 6
v 209 10
v 210 2
v 211 10
v 212 0
v 213 6
v 214 9
v 215 8
v 216 6
v 217 4
v 218 3
v 219 7
v 220 2
v 221 10
v 222 5
v 223 9
v 224 3
v 225 1
v 226 4
v 227 2
v 228 9
v 229 3
v 230 1
v 231 1
v 232 9
v 233 1
v 234 3
v 235 8
v 236 10
v 237 4
v 238 10
v 239 3
v 240 8
v 241 4
v 242 7
v 243 7
v 244 6
v 245 6
v 246 2
v 247 7
v 248 10
v 249 3
v 250 3
v 251 5
v 252 2
v 253 9
v 254 3
v 255 0
v 256 1
v 257 8
v 258 6
v 259 3
v 260 0
v 261 1
v 262 4
v 263 10
v 264 3
v 265 0
v 266 6
v 267 0
v 268 3
v 269 5
v 270 9
v 271 4
v 272 6
v 273 10
v 274 7
v 275 3
v 276 4
v 277 0
v 278 0
v 279 9
v 280 4
v 281 3
v 282 5
v 283 10
v 284 2
v 285 8
v 286 2
v 287 2
v 288 9
v 289 3
v 290 3
v 291 6
v 292 9
v 293 8
v 294 3
v 295 1
v 296 1
v 297 4
v 298 10
v 299 0
v 300 0
v 301 2
v 302 5
v 303 0
v 304 0
v 305 9
v 306 6
v 307 10
v 308 7
v 309 3
v 310 6
v 311 10
v 312 10
v 313 10
v 314 2
v 315 10
v 316 1
v 317 4
v 318 5
v 319 9
v 320 10
v 321 7
v 322 6
v 323 0
v 324 3
v 325 8
v 326 1
v 327 8
v 328 3
v 329 10
v 330 3
v 331 6
v 332 0
v 333 10
v 334 3
v 335 7
v 336 4
v 337 5
v 338 2
v 339 3
v 340 3
v 341 6
v 342 4
v 343 9
v 344 7
v 345 1
v 346 1
v 347 1
v 348 0
v 349 7
v 350 6
v 351 1
v 352 9
v 353 7
v 354 8
v 355 0
v 356 1
v 357 4
v 358 2
v 359 2
v 360 4
v 361 8
v 362 9
v 363 5
v 364 5
v 365 3
v 366 5
v 367 9
v 368 9
v 369 0
v 370 6
v 371 8
v 372 9
v 373 8
v 374 8
v 375 1
v 376 0
v 377 6
v 378 8
v 379 3
v 380 4
v 381 1
v 382 5
v 383 5
v 384 1
v 385 7
v 386 4
v 387 6
v 388 0
v 389 7
v 390 0
v 391 4
v 392 5
v 393 2
v 394 7
v 395 8
v 396 7
v 397 3
v 398 9
v 399 3
v 400 2
v 401 5
v 402 7
v 403 7
v 404 8
v 405 0
v 406 4
v 407 5
v 408 8
v 409 10
v 410 10
v 411 4
v 412 1
v 413 0
v 414 0
v 415 10
v 416 6
v 417 5
v 418 0
v 419 0
v 420 1
v 421 4
v 422 4
v 423 10
v 424 3
v 425 6
v 426 8
v 427 1
v 428 8
v 429 7
v 430 10
v 431 2
v 432 4
v 433 9
v 434 9
v 435 2
v 436 1
v 437 10
v 438 2
v 439 7
v 440 10
v 441 7
v 442 5
v 443 9
v 444 0
v 445 1
v 446 10
v 447 2
v 448 9
v 449 5
v 450 1
